NAME : P = NP
TYPE : TSP
DIMENSION : 15
EDGE_WEIGHT_TYPE : EUC_2D
NODE_COORD_SECTION
0 14 307
1 52 145
2 581 392
3 53 391
4 56 242
5 311 509
6 226 56
7 431 0
8 431 339
9 80 71
10 600 335
11 445 29
12 50 127
13 85 371
14 261 24